/*********************************************
    * Lab01 - FCR
    * Author: Coso
    * Creation Date: Mar, 2019
    *********************************************/
instance_name = "medium_instance_25_FCR";

d = 5;
r = 15;

SCj = [180 180 190 191 172];
Dk = [37 49 22 94 14 25 27 89 35 81 49 88 78 67 45];

Cjk = [[71 87 38 58 64 81 89 36 89 75 68 57 69 36 58]
 [54 54 40 80 34 55 32 67 73 68 69 35 44 60 38]
 [54 40 64 59 38 32 46 52 74 89 50 32 68 75 66]
 [41 34 82 32 53 77 40 86 68 43 53 65 68 67 40]
 [79 48 59 43 69 54 82 54 46 34 58 63 43 79 49]];
Fjk = [[534 424 638 470 704 356 644 723 768 665 667 752 750 698 836]
 [655 800 835 434 487 382 732 657 840 532 516 305 536 378 411]
 [370 862 306 511 396 441 817 627 534 338 432 611 444 814 366]
 [340 752 707 824 843 474 727 719 440 352 734 330 624 801 512]
 [647 538 360 524 736 847 501 721 412 562 723 489 384 441 390]];
